Ba2Cu3O6Y1   [TET,TET,tP12] (STD_PRIM do
1.000000
   3.87753641405488  -0.00000000000000  -0.00000000000000
  -0.00000000000000   3.87753641405488   0.00000000000000
   0.00000000000000   0.00000000000000  12.09549987244948
2 3 6 1 
Selective 
   0.50000000000000   0.50000000000000   0.19398936278918 True False False 
   0.50000000000000   0.50000000000000   0.80601063721082 True False False 
   0.00000000000000   0.00000000000000   0.00000000000000 True False False 
  -0.00000000000000   0.00000000000000   0.36270017366243 True False False 
   0.00000000000000  -0.00000000000000   0.63729982633757 True False False 
   0.00000000000000  -0.00000000000000   0.15023942974438 True False False 
  -0.00000000000000   0.00000000000000   0.84976057025562 True False False 
   0.00000000000000   0.50000000000000   0.37983766131592 True False False 
   0.50000000000000   0.00000000000000   0.37983766131592 True False False 
  -0.00000000000000   0.50000000000000   0.62016233868408 True False False 
   0.50000000000000  -0.00000000000000   0.62016233868408 True False False 
   0.50000000000000   0.50000000000000   0.50000000000000 True False False 
