For VASP. System= small
1.0
  12.7752455680  0.0000000000  0.0000000000
  -6.3876227840  11.0637119627  0.0000000000
  0.0000000000  0.0000000000  5.3241289298
F Ni Cs 
24 8 8 
Carthesian
 3.1937688760  7.0825874274  1.3310322325  F
 -3.1938539080  7.0825874274  1.3310322325  F
 6.3875802680  1.5507314461  1.3310322325  F
 -0.0000425160  1.5507314461  1.3310322325  F
 5.0446317049  10.2883830596  1.3310322325  F
 -1.3429910791  10.2883830596  1.3310322325  F
 8.2384430969  4.7565270783  1.3310322325  F
 1.8508203129  4.7565270783  1.3310322325  F
 1.3430006350  10.2883284491  1.3310322325  F
 -5.0446221490  10.2883284491  1.3310322325  F
 4.5368120270  4.7564724678  1.3310322325  F
 -1.8508107570  4.7564724678  1.3310322325  F
 6.3876653000  9.5129805165  3.9930966974  F
 0.0000425160  9.5129805165  3.9930966974  F
 9.5814766920  3.9811245352  3.9930966974  F
 3.1938539080  3.9811245352  3.9930966974  F
 4.5368024711  6.3071848844  3.9930966974  F
 -1.8508203129  6.3071848844  3.9930966974  F
 7.7306138631  0.7753289030  3.9930966974  F
 1.3429910791  0.7753289030  3.9930966974  F
 8.2384335410  6.3072394948  3.9930966974  F
 1.8508107570  6.3072394948  3.9930966974  F
 11.4322449330  0.7753835135  3.9930966974  F
 5.0446221490  0.7753835135  3.9930966974  F
 0.0000000000  0.0000000000  0.0000000000  Ni
 6.3876227840  0.0000000000  0.0000000000  Ni
 -3.1938113920  5.5318559813  0.0000000000  Ni
 3.1938113920  5.5318559813  0.0000000000  Ni
 0.0000000000  0.0000000000  2.6620644649  Ni
 6.3876227840  0.0000000000  2.6620644649  Ni
 -3.1938113920  5.5318559813  2.6620644649  Ni
 3.1938113920  5.5318559813  2.6620644649  Ni
 3.1938203091  9.2197548206  3.9930966974  Cs
 -3.1938024749  9.2197548206  3.9930966974  Cs
 6.3876317011  3.6878988392  3.9930966974  Cs
 0.0000089171  3.6878988392  3.9930966974  Cs
 6.3876138669  7.3758131234  1.3310322325  Cs
 -0.0000089171  7.3758131234  1.3310322325  Cs
 9.5814252589  1.8439571421  1.3310322325  Cs
 3.1938024749  1.8439571421  1.3310322325  Cs

