TRIANGUILAR
3.72583090653
        6.00000000000000         0.0000000000         0.0000000000
       -3.00000000000000         5.1961524227         0.0000000000
        0.00000000000000         0.0000000000         0.25
    H
   36
Direct
     0.00000000000         0.00000000000         0.0000000
     0.00000000000         0.66666666667         0.0000000
     0.33333333333         0.33333333333         0.0000000
     0.66666666667         0.00000000000         0.0000000
     0.00000000000         0.33333333333         0.0000000
     0.66666666667         0.66666666667         0.0000000
     0.33333333333         0.00000000000         0.0000000
     0.66666666667         0.33333333333         0.0000000
     0.33333333333         0.66666666667         0.0000000
     0.00000000000         0.16666666667         0.0000000
     0.83333333333         0.83333333333         0.0000000
     0.16666666667         0.00000000000         0.0000000
     0.00000000000         0.83333333333         0.0000000
     0.16666666667         0.16666666667         0.0000000
     0.83333333333         0.00000000000         0.0000000
     0.00000000000         0.50000000000         0.0000000
     0.50000000000         0.50000000000         0.0000000
     0.50000000000         0.00000000000         0.0000000
     0.66666666667         0.16666666667         0.0000000
     0.83333333333         0.50000000000         0.0000000
     0.50000000000         0.33333333333         0.0000000
     0.66666666667         0.83333333333         0.0000000
     0.16666666667         0.83333333333         0.0000000
     0.16666666667         0.33333333333         0.0000000
     0.66666666667         0.50000000000         0.0000000
     0.50000000000         0.16666666667         0.0000000
     0.83333333333         0.33333333333         0.0000000
     0.33333333333         0.16666666667         0.0000000
     0.83333333333         0.16666666667         0.0000000
     0.83333333333         0.66666666667         0.0000000
     0.33333333333         0.83333333333         0.0000000
     0.16666666667         0.50000000000         0.0000000
     0.50000000000         0.66666666667         0.0000000
     0.33333333333         0.50000000000         0.0000000
     0.50000000000         0.83333333333         0.0000000
     0.16666666667         0.66666666667         0.0000000
