Cs1F3Ni1 [HEX,HEX,hP10] (STD_PRIM doi:
1.0
  9.5181401616  -16.4859023535  -0.0000000000
  9.5174659820  16.4855131157  -0.0000000000
  -0.0000000000  -0.0000000000  10.5748288741
F Ni Cs 
108 36 36 
Carthesian
 1.8281589012  4.7189570175  1.3218536093  F
 -1.8281589012  4.7189570175  1.3218536093  F
 0.0000000000  1.5524929163  1.3218536093  F
 1.3444983047  0.7762464582  3.9655608278  F
 5.0008161071  0.7762464582  3.9655608278  F
 3.1726572059  3.9427105593  3.9655608278  F
 -1.3444983047  10.2141604931  1.3218536093  F
 -5.0008161071  10.2141604931  1.3218536093  F
 -3.1726572059  7.0476963919  1.3218536093  F
 -1.8281589012  6.2714499338  3.9655608278  F
 1.8281589012  6.2714499338  3.9655608278  F
 -0.0000000000  9.4379140349  3.9655608278  F
 8.1734733130  4.7189570175  1.3218536093  F
 4.5171555106  4.7189570175  1.3218536093  F
 6.3453144118  1.5524929163  1.3218536093  F
 7.6898127165  0.7762464582  3.9655608278  F
 11.3461305189  0.7762464582  3.9655608278  F
 9.5179716177  3.9427105593  3.9655608278  F
 5.0008161071  10.2141604931  1.3218536093  F
 1.3444983047  10.2141604931  1.3218536093  F
 3.1726572059  7.0476963919  1.3218536093  F
 4.5171555106  6.2714499338  3.9655608278  F
 8.1734733130  6.2714499338  3.9655608278  F
 6.3453144118  9.4379140349  3.9655608278  F
 0.0000000000  0.0000000000  0.0000000000  Ni
 0.0000000000  0.0000000000  2.6437072185  Ni
 -3.1726572059  5.4952034756  0.0000000000  Ni
 -3.1726572059  5.4952034756  2.6437072185  Ni
 6.3453144118  0.0000000000  0.0000000000  Ni
 6.3453144118  0.0000000000  2.6437072185  Ni
 3.1726572059  5.4952034756  0.0000000000  Ni
 3.1726572059  5.4952034756  2.6437072185  Ni
 3.1726572059  1.8317344919  1.3218536093  Cs
 0.0000000000  3.6634689837  3.9655608278  Cs
 0.0000000000  7.3269379675  1.3218536093  Cs
 -3.1726572059  9.1586724594  3.9655608278  Cs
 9.5179716177  1.8317344919  1.3218536093  Cs
 6.3453144118  3.6634689837  3.9655608278  Cs
 6.3453144118  7.3269379675  1.3218536093  Cs
 3.1726572059  9.1586724594  3.9655608278  Cs

