Ce1Co1In5   [TET,TET,tP7] (STD_PRIM doi:
1.000000
   4.62646793579973   0.00000000000000  -0.00000000000000
  -0.00000000000000   4.62646793579973   0.00000000000000
   0.00000000000000  -0.00000000000000   7.64116871494287
1 1 5 
Direct(7) [A1B1C5] 
   0.00000000000000  -0.00000000000000   0.00000000000000  Ce    
  -0.00000000000000   0.00000000000000   0.50000000000000  Co    
   0.50000000000000   0.50000000000000   0.00000000000000  In    
   0.00000000000000   0.50000000000000   0.31187751335534  In    
   0.50000000000000   0.00000000000000   0.31187751335534  In    
  -0.00000000000000   0.50000000000000   0.68812248664466  In    
   0.50000000000000  -0.00000000000000   0.68812248664466  In  
