SYSTEM = BCC_IRON

ISPIN  = 2
NELM   = 100

EDIFF  = 1e-7

ENCUT  = 349
ISMEAR = 1
SIGMA = 0.01

NPAR   =  1 
KPAR   =  4 

PREC   = Accurate

LREAL  = .FALSE.
LCHARG = .FALSE.
LWAVE  = .FALSE.
LORBIT = 11

MAGMOM = 2.174000 -2.174000 
