Cs1F3Ni1   [HEX,HEX,hP10] (STD_PRIM doi:
1.000000
   3.17271338720369  -5.49530078449075  -0.00000000000000
   3.17248866065229   5.49517103855580  -0.00000000000000
  -0.00000000000000  -0.00000000000000   5.28741443704667
6 2 2
Direct(10) [A2B6C2] 
   0.71748217819191   0.85873852982719   0.25000000000000  F     
   0.14125635163527   0.85873852982719   0.25000000000000  F     
   0.14126593632825   0.28253187265651   0.25000000000000  F     
   0.28251782180809   0.14126147017281   0.75000000000000  F     
   0.85874364836473   0.14126147017281   0.75000000000000  F     
   0.85873406367175   0.71746812734349   0.75000000000000  F     
  -0.00000000000000   0.00000000000000  -0.00000000000000  Ni    
   0.00000000000000  -0.00000000000000   0.50000000000000  Ni  
   0.66667745345183   0.33335490690366   0.25000000000000  Cs    
   0.33332254654817   0.66664509309634   0.75000000000000  Cs    
