generated by phonopy
   1.0
     5.6450529049024230    0.0000000000000000    0.0000000000000000
    -2.8225264524512115    4.8887592213526387    0.0000000000000000
     0.0000000000000000    0.0000000000000000    4.3820693513082887
Fe Sn
   6    2
Direct
  0.8531140907476598  0.7062281814953195  0.7500000000000000
  0.1468859092523402  0.8531140907476598  0.2500000000000000
  0.2937718185046805  0.1468859092523402  0.7500000000000000
  0.1468859092523402  0.2937718185046805  0.2500000000000000
  0.8531140907476598  0.1468859092523402  0.7500000000000000
  0.7062281814953195  0.8531140907476598  0.2500000000000000
  0.3333333333333333  0.6666666666666666  0.7500000000000000
  0.6666666666666667  0.3333333333333334  0.2500000000000000
