Mn4 O4
1.0
4.494538 0.000000 0.000000
0.000000 4.494538 0.000000
0.000000 0.000000 4.494538
Mn O
4 4
direct
0.000000 0.000000 0.000000 Mn
0.500000 0.500000 0.000000 Mn
0.500000 0.000000 0.500000 Mn
0.000000 0.500000 0.500000 Mn
0.000000 0.000000 0.500000 O
0.500000 0.000000 0.000000 O
0.000000 0.500000 0.000000 O
0.500000 0.500000 0.500000 O
