NewRef: 0, @ ['Fe', array([0., 0., 0.]), 2.174]
1.0
  5.6580177637  0.0000000000  0.0000000000
  0.0000000000  5.6580177637  0.0000000000
  0.0000000000  0.0000000000  5.6580177637
Fe 
16 
Carthesian
  0.0000000000  0.0000000000  0.0000000000  Fe
  1.4145044409  1.4145044409  1.4145044409  Fe
  0.0000000000  0.0000000000  2.8290088819  Fe
  1.4145044409  1.4145044409  4.2435133228  Fe
  0.0000000000  2.8290088819  0.0000000000  Fe
  1.4145044409  4.2435133228  1.4145044409  Fe
  0.0000000000  2.8290088819  2.8290088819  Fe
  1.4145044409  4.2435133228  4.2435133228  Fe
  2.8290088819  0.0000000000  0.0000000000  Fe
  4.2435133228  1.4145044409  1.4145044409  Fe
  2.8290088819  0.0000000000  2.8290088819  Fe
  4.2435133228  1.4145044409  4.2435133228  Fe
  2.8290088819  2.8290088819  0.0000000000  Fe
  4.2435133228  4.2435133228  1.4145044409  Fe
  2.8290088819  2.8290088819  2.8290088819  Fe
  4.2435133228  4.2435133228  4.2435133228  Fe

