BCC IRON
   2.8290088818710286
    -0.5  0.5  0.5
     0.5 -0.5  0.5
     0.5  0.5 -0.5
   Fe
     1
Direct
  0.0000000000000000  0.0000000000000000  0.0000000000000000
