CC/59 - (A2) - BCC [A] (59)  (htqc libra
1.016396
  -4.14601218976951   4.14601218976951   4.14601218976951
   4.14601218976951  -4.14601218976951   4.14601218976951
   4.14601218976951   4.14601218976951  -4.14601218976951
1 
Direct(1) [A1] 
   0.00000000000000   0.00000000000000   0.00000000000000  C     
   0.25000000000000   0.00000000000000   0.00000000000000  C     
   0.00000000000000   0.00000000000000   0.00000000000000  C     
   0.25000000000000   0.00000000000000   0.00000000000000  C     
   0.00000000000000   0.25000000000000   0.00000000000000  C     
   0.25000000000000   0.25000000000000   0.00000000000000  C     
   0.00000000000000   0.00000000000000   0.25000000000000  C     
   0.25000000000000   0.00000000000000   0.25000000000000  C     
   0.00000000000000   0.00000000000000   0.25000000000000  C     
   0.25000000000000   0.25000000000000   0.25000000000000  C     
   0.00000000000000   0.25500000000000   0.25000000000000  C     

