BCC IRON
1.0
  2.8290088819  0.0000000000  0.0000000000
  0.0000000000  2.8290088819  0.0000000000
  0.0000000000  0.0000000000  2.8290088819
Fe 
2 
Carthesian
 0.0000000000  0.0000000000  0.0000000000  Fe
 1.4145044409  1.4145044409  1.4145044409  Fe

