Ag5Hg1O6Sb1 [HEX,HEX,hP26] (STD_PRIM d
1.0
  6.0534936631  -10.4849585877  -0.0006642735
  3.0273981509  5.2428553333  0.0001660684
  -0.0003446251  0.0005969081  12.5635178440
Ag Hg O Sb 
20 4 24 4 
Carthesian
 0.0000000000  0.0000000000  1.6040870325  Ag
 0.0000000000  0.0000000000  4.6776718989  Ag
 0.0000000000  0.0000000000  10.9594308304  Ag
 0.0000000000  0.0000000000  7.8858459640  Ag
 -1.5134548336  2.6213806667  0.0000000000  Ag
 1.5134548336  2.6213806667  0.0000000000  Ag
 3.0269096671  0.0000000000  0.0000000000  Ag
 1.5134548336  2.6213806667  6.2817589315  Ag
 -1.5134548336  2.6213806667  6.2817589315  Ag
 3.0269096671  0.0000000000  6.2817589315  Ag
 6.0538193343  0.0000000000  1.6040870325  Ag
 6.0538193343  0.0000000000  4.6776718989  Ag
 6.0538193343  0.0000000000  10.9594308304  Ag
 6.0538193343  0.0000000000  7.8858459640  Ag
 4.5403645007  2.6213806667  0.0000000000  Ag
 7.5672741678  2.6213806667  0.0000000000  Ag
 9.0807290014  0.0000000000  0.0000000000  Ag
 7.5672741678  2.6213806667  6.2817589315  Ag
 4.5403645007  2.6213806667  6.2817589315  Ag
 9.0807290014  0.0000000000  6.2817589315  Ag
 3.0269096671  1.7475871111  3.1408794657  Hg
 -0.0000000000  3.4951742223  9.4226383972  Hg
 9.0807290014  1.7475871111  3.1408794657  Hg
 6.0538193343  3.4951742223  9.4226383972  Hg
 -1.6823327137  3.4140551666  1.9901785186  O
 0.9114175198  2.0787908824  1.9901785186  O
 0.7709151939  4.9926766178  1.9901785186  O
 1.6823327137  3.4140551666  4.2915804129  O
 -0.9114175198  2.0787908824  4.2915804129  O
 -0.7709151939  4.9926766178  4.2915804129  O
 4.7092423808  1.8287061668  10.5733393444  O
 2.1154921474  3.1639704510  10.5733393444  O
 2.2559944732  0.2500847156  10.5733393444  O
 1.3445769534  1.8287061668  8.2719374500  O
 3.9383271869  3.1639704510  8.2719374500  O
 3.7978248610  0.2500847156  8.2719374500  O
 4.3714866206  3.4140551666  1.9901785186  O
 6.9652368540  2.0787908824  1.9901785186  O
 6.8247345282  4.9926766178  1.9901785186  O
 7.7361520479  3.4140551666  4.2915804129  O
 5.1424018145  2.0787908824  4.2915804129  O
 5.2829041403  4.9926766178  4.2915804129  O
 10.7630617151  1.8287061668  10.5733393444  O
 8.1693114816  3.1639704510  10.5733393444  O
 8.3098138075  0.2500847156  10.5733393444  O
 7.3983962877  1.8287061668  8.2719374500  O
 9.9921465212  3.1639704510  8.2719374500  O
 9.8516441953  0.2500847156  8.2719374500  O
 0.0000000000  3.4951742223  3.1408794657  Sb
 3.0269096671  1.7475871111  9.4226383972  Sb
 6.0538193343  3.4951742223  3.1408794657  Sb
 9.0807290014  1.7475871111  9.4226383972  Sb

