Ba2Cu3O6Y1 [TET,TET,tP12] (STD_PRIM do
1.0
  3.8775364141  -0.0000000000  0.0000000000
  -0.0000000000  3.8775364141  0.0000000000
  0.0000000000  0.0000000000  12.0954998724
Ba Cu O Y 
2 3 6 1 
Carthesian
 1.9387682070  1.9387682070  2.3463983129  Ba
 1.9387682070  1.9387682070  9.7491015596  Ba
 0.0000000000  0.0000000000  0.0000000000  Cu
 0.0000000000  0.0000000000  4.3870399043  Cu
 0.0000000000  0.0000000000  7.7084599682  Cu
 0.0000000000  0.0000000000  1.8172210033  O
 0.0000000000  0.0000000000  10.2782788691  O
 0.0000000000  1.9387682070  4.5943263840  O
 1.9387682070  0.0000000000  4.5943263840  O
 0.0000000000  1.9387682070  7.5011734885  O
 1.9387682070  0.0000000000  7.5011734885  O
 1.9387682070  1.9387682070  6.0477499362  Y

