Ba2Cu3O6Y1 [TET,TET,tP12] (STD_PRIM do
1.0
  15.5101456564  -0.0000000000  0.0000000000
  -0.0000000000  15.5101456564  0.0000000000
  -0.0000000000  0.0000000000  24.1909997448
Ba Cu O Y 
64 96 192 32 
Carthesian
 1.9387682070  1.9387682070  2.3463983129  Ba
 1.9387682070  1.9387682070  9.7491015596  Ba
 1.9387682070  1.9387682070  14.4418981853  Ba
 1.9387682070  1.9387682070  21.8446014320  Ba
 1.9387682070  5.8163046211  2.3463983129  Ba
 1.9387682070  5.8163046211  9.7491015596  Ba
 1.9387682070  5.8163046211  14.4418981853  Ba
 1.9387682070  5.8163046211  21.8446014320  Ba
 1.9387682070  9.6938410352  2.3463983129  Ba
 1.9387682070  9.6938410352  9.7491015596  Ba
 1.9387682070  9.6938410352  14.4418981853  Ba
 1.9387682070  9.6938410352  21.8446014320  Ba
 1.9387682070  13.5713774493  2.3463983129  Ba
 1.9387682070  13.5713774493  9.7491015596  Ba
 1.9387682070  13.5713774493  14.4418981853  Ba
 1.9387682070  13.5713774493  21.8446014320  Ba
 5.8163046211  1.9387682070  2.3463983129  Ba
 5.8163046211  1.9387682070  9.7491015596  Ba
 5.8163046211  1.9387682070  14.4418981853  Ba
 5.8163046211  1.9387682070  21.8446014320  Ba
 5.8163046211  5.8163046211  2.3463983129  Ba
 5.8163046211  5.8163046211  9.7491015596  Ba
 5.8163046211  5.8163046211  14.4418981853  Ba
 5.8163046211  5.8163046211  21.8446014320  Ba
 5.8163046211  9.6938410352  2.3463983129  Ba
 5.8163046211  9.6938410352  9.7491015596  Ba
 5.8163046211  9.6938410352  14.4418981853  Ba
 5.8163046211  9.6938410352  21.8446014320  Ba
 5.8163046211  13.5713774493  2.3463983129  Ba
 5.8163046211  13.5713774493  9.7491015596  Ba
 5.8163046211  13.5713774493  14.4418981853  Ba
 5.8163046211  13.5713774493  21.8446014320  Ba
 9.6938410352  1.9387682070  2.3463983129  Ba
 9.6938410352  1.9387682070  9.7491015596  Ba
 9.6938410352  1.9387682070  14.4418981853  Ba
 9.6938410352  1.9387682070  21.8446014320  Ba
 9.6938410352  5.8163046211  2.3463983129  Ba
 9.6938410352  5.8163046211  9.7491015596  Ba
 9.6938410352  5.8163046211  14.4418981853  Ba
 9.6938410352  5.8163046211  21.8446014320  Ba
 9.6938410352  9.6938410352  2.3463983129  Ba
 9.6938410352  9.6938410352  9.7491015596  Ba
 9.6938410352  9.6938410352  14.4418981853  Ba
 9.6938410352  9.6938410352  21.8446014320  Ba
 9.6938410352  13.5713774493  2.3463983129  Ba
 9.6938410352  13.5713774493  9.7491015596  Ba
 9.6938410352  13.5713774493  14.4418981853  Ba
 9.6938410352  13.5713774493  21.8446014320  Ba
 13.5713774493  1.9387682070  2.3463983129  Ba
 13.5713774493  1.9387682070  9.7491015596  Ba
 13.5713774493  1.9387682070  14.4418981853  Ba
 13.5713774493  1.9387682070  21.8446014320  Ba
 13.5713774493  5.8163046211  2.3463983129  Ba
 13.5713774493  5.8163046211  9.7491015596  Ba
 13.5713774493  5.8163046211  14.4418981853  Ba
 13.5713774493  5.8163046211  21.8446014320  Ba
 13.5713774493  9.6938410352  2.3463983129  Ba
 13.5713774493  9.6938410352  9.7491015596  Ba
 13.5713774493  9.6938410352  14.4418981853  Ba
 13.5713774493  9.6938410352  21.8446014320  Ba
 13.5713774493  13.5713774493  2.3463983129  Ba
 13.5713774493  13.5713774493  9.7491015596  Ba
 13.5713774493  13.5713774493  14.4418981853  Ba
 13.5713774493  13.5713774493  21.8446014320  Ba
 0.0000000000  0.0000000000  0.0000000000  Cu
 0.0000000000  0.0000000000  4.3870399043  Cu
 0.0000000000  0.0000000000  7.7084599682  Cu
 0.0000000000  0.0000000000  12.0954998724  Cu
 0.0000000000  0.0000000000  16.4825397767  Cu
 0.0000000000  0.0000000000  19.8039598406  Cu
 0.0000000000  3.8775364141  0.0000000000  Cu
 0.0000000000  3.8775364141  4.3870399043  Cu
 0.0000000000  3.8775364141  7.7084599682  Cu
 0.0000000000  3.8775364141  12.0954998724  Cu
 0.0000000000  3.8775364141  16.4825397767  Cu
 0.0000000000  3.8775364141  19.8039598406  Cu
 0.0000000000  7.7550728282  0.0000000000  Cu
 0.0000000000  7.7550728282  4.3870399043  Cu
 0.0000000000  7.7550728282  7.7084599682  Cu
 0.0000000000  7.7550728282  12.0954998724  Cu
 0.0000000000  7.7550728282  16.4825397767  Cu
 0.0000000000  7.7550728282  19.8039598406  Cu
 0.0000000000  11.6326092423  0.0000000000  Cu
 0.0000000000  11.6326092423  4.3870399043  Cu
 0.0000000000  11.6326092423  7.7084599682  Cu
 0.0000000000  11.6326092423  12.0954998724  Cu
 0.0000000000  11.6326092423  16.4825397767  Cu
 0.0000000000  11.6326092423  19.8039598406  Cu
 3.8775364141  0.0000000000  0.0000000000  Cu
 3.8775364141  0.0000000000  4.3870399043  Cu
 3.8775364141  0.0000000000  7.7084599682  Cu
 3.8775364141  0.0000000000  12.0954998724  Cu
 3.8775364141  0.0000000000  16.4825397767  Cu
 3.8775364141  0.0000000000  19.8039598406  Cu
 3.8775364141  3.8775364141  0.0000000000  Cu
 3.8775364141  3.8775364141  4.3870399043  Cu
 3.8775364141  3.8775364141  7.7084599682  Cu
 3.8775364141  3.8775364141  12.0954998724  Cu
 3.8775364141  3.8775364141  16.4825397767  Cu
 3.8775364141  3.8775364141  19.8039598406  Cu
 3.8775364141  7.7550728282  0.0000000000  Cu
 3.8775364141  7.7550728282  4.3870399043  Cu
 3.8775364141  7.7550728282  7.7084599682  Cu
 3.8775364141  7.7550728282  12.0954998724  Cu
 3.8775364141  7.7550728282  16.4825397767  Cu
 3.8775364141  7.7550728282  19.8039598406  Cu
 3.8775364141  11.6326092423  0.0000000000  Cu
 3.8775364141  11.6326092423  4.3870399043  Cu
 3.8775364141  11.6326092423  7.7084599682  Cu
 3.8775364141  11.6326092423  12.0954998724  Cu
 3.8775364141  11.6326092423  16.4825397767  Cu
 3.8775364141  11.6326092423  19.8039598406  Cu
 7.7550728282  0.0000000000  0.0000000000  Cu
 7.7550728282  0.0000000000  4.3870399043  Cu
 7.7550728282  0.0000000000  7.7084599682  Cu
 7.7550728282  0.0000000000  12.0954998724  Cu
 7.7550728282  0.0000000000  16.4825397767  Cu
 7.7550728282  0.0000000000  19.8039598406  Cu
 7.7550728282  3.8775364141  0.0000000000  Cu
 7.7550728282  3.8775364141  4.3870399043  Cu
 7.7550728282  3.8775364141  7.7084599682  Cu
 7.7550728282  3.8775364141  12.0954998724  Cu
 7.7550728282  3.8775364141  16.4825397767  Cu
 7.7550728282  3.8775364141  19.8039598406  Cu
 7.7550728282  7.7550728282  0.0000000000  Cu
 7.7550728282  7.7550728282  4.3870399043  Cu
 7.7550728282  7.7550728282  7.7084599682  Cu
 7.7550728282  7.7550728282  12.0954998724  Cu
 7.7550728282  7.7550728282  16.4825397767  Cu
 7.7550728282  7.7550728282  19.8039598406  Cu
 7.7550728282  11.6326092423  0.0000000000  Cu
 7.7550728282  11.6326092423  4.3870399043  Cu
 7.7550728282  11.6326092423  7.7084599682  Cu
 7.7550728282  11.6326092423  12.0954998724  Cu
 7.7550728282  11.6326092423  16.4825397767  Cu
 7.7550728282  11.6326092423  19.8039598406  Cu
 11.6326092423  0.0000000000  0.0000000000  Cu
 11.6326092423  0.0000000000  4.3870399043  Cu
 11.6326092423  0.0000000000  7.7084599682  Cu
 11.6326092423  0.0000000000  12.0954998724  Cu
 11.6326092423  0.0000000000  16.4825397767  Cu
 11.6326092423  0.0000000000  19.8039598406  Cu
 11.6326092423  3.8775364141  0.0000000000  Cu
 11.6326092423  3.8775364141  4.3870399043  Cu
 11.6326092423  3.8775364141  7.7084599682  Cu
 11.6326092423  3.8775364141  12.0954998724  Cu
 11.6326092423  3.8775364141  16.4825397767  Cu
 11.6326092423  3.8775364141  19.8039598406  Cu
 11.6326092423  7.7550728282  0.0000000000  Cu
 11.6326092423  7.7550728282  4.3870399043  Cu
 11.6326092423  7.7550728282  7.7084599682  Cu
 11.6326092423  7.7550728282  12.0954998724  Cu
 11.6326092423  7.7550728282  16.4825397767  Cu
 11.6326092423  7.7550728282  19.8039598406  Cu
 11.6326092423  11.6326092423  0.0000000000  Cu
 11.6326092423  11.6326092423  4.3870399043  Cu
 11.6326092423  11.6326092423  7.7084599682  Cu
 11.6326092423  11.6326092423  12.0954998724  Cu
 11.6326092423  11.6326092423  16.4825397767  Cu
 11.6326092423  11.6326092423  19.8039598406  Cu
 0.0000000000  0.0000000000  1.8172210033  O
 0.0000000000  0.0000000000  10.2782788691  O
 0.0000000000  1.9387682070  4.5943263840  O
 1.9387682070  0.0000000000  4.5943263840  O
 0.0000000000  1.9387682070  7.5011734885  O
 1.9387682070  0.0000000000  7.5011734885  O
 0.0000000000  0.0000000000  13.9127208757  O
 0.0000000000  0.0000000000  22.3737787415  O
 0.0000000000  1.9387682070  16.6898262564  O
 1.9387682070  0.0000000000  16.6898262564  O
 0.0000000000  1.9387682070  19.5966733609  O
 1.9387682070  0.0000000000  19.5966733609  O
 0.0000000000  3.8775364141  1.8172210033  O
 0.0000000000  3.8775364141  10.2782788691  O
 0.0000000000  5.8163046211  4.5943263840  O
 1.9387682070  3.8775364141  4.5943263840  O
 0.0000000000  5.8163046211  7.5011734885  O
 1.9387682070  3.8775364141  7.5011734885  O
 0.0000000000  3.8775364141  13.9127208757  O
 0.0000000000  3.8775364141  22.3737787415  O
 0.0000000000  5.8163046211  16.6898262564  O
 1.9387682070  3.8775364141  16.6898262564  O
 0.0000000000  5.8163046211  19.5966733609  O
 1.9387682070  3.8775364141  19.5966733609  O
 0.0000000000  7.7550728282  1.8172210033  O
 0.0000000000  7.7550728282  10.2782788691  O
 0.0000000000  9.6938410352  4.5943263840  O
 1.9387682070  7.7550728282  4.5943263840  O
 0.0000000000  9.6938410352  7.5011734885  O
 1.9387682070  7.7550728282  7.5011734885  O
 0.0000000000  7.7550728282  13.9127208757  O
 0.0000000000  7.7550728282  22.3737787415  O
 0.0000000000  9.6938410352  16.6898262564  O
 1.9387682070  7.7550728282  16.6898262564  O
 0.0000000000  9.6938410352  19.5966733609  O
 1.9387682070  7.7550728282  19.5966733609  O
 0.0000000000  11.6326092423  1.8172210033  O
 0.0000000000  11.6326092423  10.2782788691  O
 0.0000000000  13.5713774493  4.5943263840  O
 1.9387682070  11.6326092423  4.5943263840  O
 0.0000000000  13.5713774493  7.5011734885  O
 1.9387682070  11.6326092423  7.5011734885  O
 0.0000000000  11.6326092423  13.9127208757  O
 0.0000000000  11.6326092423  22.3737787415  O
 0.0000000000  13.5713774493  16.6898262564  O
 1.9387682070  11.6326092423  16.6898262564  O
 0.0000000000  13.5713774493  19.5966733609  O
 1.9387682070  11.6326092423  19.5966733609  O
 3.8775364141  0.0000000000  1.8172210033  O
 3.8775364141  0.0000000000  10.2782788691  O
 3.8775364141  1.9387682070  4.5943263840  O
 5.8163046211  0.0000000000  4.5943263840  O
 3.8775364141  1.9387682070  7.5011734885  O
 5.8163046211  0.0000000000  7.5011734885  O
 3.8775364141  0.0000000000  13.9127208757  O
 3.8775364141  0.0000000000  22.3737787415  O
 3.8775364141  1.9387682070  16.6898262564  O
 5.8163046211  0.0000000000  16.6898262564  O
 3.8775364141  1.9387682070  19.5966733609  O
 5.8163046211  0.0000000000  19.5966733609  O
 3.8775364141  3.8775364141  1.8172210033  O
 3.8775364141  3.8775364141  10.2782788691  O
 3.8775364141  5.8163046211  4.5943263840  O
 5.8163046211  3.8775364141  4.5943263840  O
 3.8775364141  5.8163046211  7.5011734885  O
 5.8163046211  3.8775364141  7.5011734885  O
 3.8775364141  3.8775364141  13.9127208757  O
 3.8775364141  3.8775364141  22.3737787415  O
 3.8775364141  5.8163046211  16.6898262564  O
 5.8163046211  3.8775364141  16.6898262564  O
 3.8775364141  5.8163046211  19.5966733609  O
 5.8163046211  3.8775364141  19.5966733609  O
 3.8775364141  7.7550728282  1.8172210033  O
 3.8775364141  7.7550728282  10.2782788691  O
 3.8775364141  9.6938410352  4.5943263840  O
 5.8163046211  7.7550728282  4.5943263840  O
 3.8775364141  9.6938410352  7.5011734885  O
 5.8163046211  7.7550728282  7.5011734885  O
 3.8775364141  7.7550728282  13.9127208757  O
 3.8775364141  7.7550728282  22.3737787415  O
 3.8775364141  9.6938410352  16.6898262564  O
 5.8163046211  7.7550728282  16.6898262564  O
 3.8775364141  9.6938410352  19.5966733609  O
 5.8163046211  7.7550728282  19.5966733609  O
 3.8775364141  11.6326092423  1.8172210033  O
 3.8775364141  11.6326092423  10.2782788691  O
 3.8775364141  13.5713774493  4.5943263840  O
 5.8163046211  11.6326092423  4.5943263840  O
 3.8775364141  13.5713774493  7.5011734885  O
 5.8163046211  11.6326092423  7.5011734885  O
 3.8775364141  11.6326092423  13.9127208757  O
 3.8775364141  11.6326092423  22.3737787415  O
 3.8775364141  13.5713774493  16.6898262564  O
 5.8163046211  11.6326092423  16.6898262564  O
 3.8775364141  13.5713774493  19.5966733609  O
 5.8163046211  11.6326092423  19.5966733609  O
 7.7550728282  0.0000000000  1.8172210033  O
 7.7550728282  0.0000000000  10.2782788691  O
 7.7550728282  1.9387682070  4.5943263840  O
 9.6938410352  0.0000000000  4.5943263840  O
 7.7550728282  1.9387682070  7.5011734885  O
 9.6938410352  0.0000000000  7.5011734885  O
 7.7550728282  0.0000000000  13.9127208757  O
 7.7550728282  0.0000000000  22.3737787415  O
 7.7550728282  1.9387682070  16.6898262564  O
 9.6938410352  0.0000000000  16.6898262564  O
 7.7550728282  1.9387682070  19.5966733609  O
 9.6938410352  0.0000000000  19.5966733609  O
 7.7550728282  3.8775364141  1.8172210033  O
 7.7550728282  3.8775364141  10.2782788691  O
 7.7550728282  5.8163046211  4.5943263840  O
 9.6938410352  3.8775364141  4.5943263840  O
 7.7550728282  5.8163046211  7.5011734885  O
 9.6938410352  3.8775364141  7.5011734885  O
 7.7550728282  3.8775364141  13.9127208757  O
 7.7550728282  3.8775364141  22.3737787415  O
 7.7550728282  5.8163046211  16.6898262564  O
 9.6938410352  3.8775364141  16.6898262564  O
 7.7550728282  5.8163046211  19.5966733609  O
 9.6938410352  3.8775364141  19.5966733609  O
 7.7550728282  7.7550728282  1.8172210033  O
 7.7550728282  7.7550728282  10.2782788691  O
 7.7550728282  9.6938410352  4.5943263840  O
 9.6938410352  7.7550728282  4.5943263840  O
 7.7550728282  9.6938410352  7.5011734885  O
 9.6938410352  7.7550728282  7.5011734885  O
 7.7550728282  7.7550728282  13.9127208757  O
 7.7550728282  7.7550728282  22.3737787415  O
 7.7550728282  9.6938410352  16.6898262564  O
 9.6938410352  7.7550728282  16.6898262564  O
 7.7550728282  9.6938410352  19.5966733609  O
 9.6938410352  7.7550728282  19.5966733609  O
 7.7550728282  11.6326092423  1.8172210033  O
 7.7550728282  11.6326092423  10.2782788691  O
 7.7550728282  13.5713774493  4.5943263840  O
 9.6938410352  11.6326092423  4.5943263840  O
 7.7550728282  13.5713774493  7.5011734885  O
 9.6938410352  11.6326092423  7.5011734885  O
 7.7550728282  11.6326092423  13.9127208757  O
 7.7550728282  11.6326092423  22.3737787415  O
 7.7550728282  13.5713774493  16.6898262564  O
 9.6938410352  11.6326092423  16.6898262564  O
 7.7550728282  13.5713774493  19.5966733609  O
 9.6938410352  11.6326092423  19.5966733609  O
 11.6326092423  0.0000000000  1.8172210033  O
 11.6326092423  0.0000000000  10.2782788691  O
 11.6326092423  1.9387682070  4.5943263840  O
 13.5713774493  0.0000000000  4.5943263840  O
 11.6326092423  1.9387682070  7.5011734885  O
 13.5713774493  0.0000000000  7.5011734885  O
 11.6326092423  0.0000000000  13.9127208757  O
 11.6326092423  0.0000000000  22.3737787415  O
 11.6326092423  1.9387682070  16.6898262564  O
 13.5713774493  0.0000000000  16.6898262564  O
 11.6326092423  1.9387682070  19.5966733609  O
 13.5713774493  0.0000000000  19.5966733609  O
 11.6326092423  3.8775364141  1.8172210033  O
 11.6326092423  3.8775364141  10.2782788691  O
 11.6326092423  5.8163046211  4.5943263840  O
 13.5713774493  3.8775364141  4.5943263840  O
 11.6326092423  5.8163046211  7.5011734885  O
 13.5713774493  3.8775364141  7.5011734885  O
 11.6326092423  3.8775364141  13.9127208757  O
 11.6326092423  3.8775364141  22.3737787415  O
 11.6326092423  5.8163046211  16.6898262564  O
 13.5713774493  3.8775364141  16.6898262564  O
 11.6326092423  5.8163046211  19.5966733609  O
 13.5713774493  3.8775364141  19.5966733609  O
 11.6326092423  7.7550728282  1.8172210033  O
 11.6326092423  7.7550728282  10.2782788691  O
 11.6326092423  9.6938410352  4.5943263840  O
 13.5713774493  7.7550728282  4.5943263840  O
 11.6326092423  9.6938410352  7.5011734885  O
 13.5713774493  7.7550728282  7.5011734885  O
 11.6326092423  7.7550728282  13.9127208757  O
 11.6326092423  7.7550728282  22.3737787415  O
 11.6326092423  9.6938410352  16.6898262564  O
 13.5713774493  7.7550728282  16.6898262564  O
 11.6326092423  9.6938410352  19.5966733609  O
 13.5713774493  7.7550728282  19.5966733609  O
 11.6326092423  11.6326092423  1.8172210033  O
 11.6326092423  11.6326092423  10.2782788691  O
 11.6326092423  13.5713774493  4.5943263840  O
 13.5713774493  11.6326092423  4.5943263840  O
 11.6326092423  13.5713774493  7.5011734885  O
 13.5713774493  11.6326092423  7.5011734885  O
 11.6326092423  11.6326092423  13.9127208757  O
 11.6326092423  11.6326092423  22.3737787415  O
 11.6326092423  13.5713774493  16.6898262564  O
 13.5713774493  11.6326092423  16.6898262564  O
 11.6326092423  13.5713774493  19.5966733609  O
 13.5713774493  11.6326092423  19.5966733609  O
 1.9387682070  1.9387682070  6.0477499362  Y
 1.9387682070  1.9387682070  18.1432498086  Y
 1.9387682070  5.8163046211  6.0477499362  Y
 1.9387682070  5.8163046211  18.1432498086  Y
 1.9387682070  9.6938410352  6.0477499362  Y
 1.9387682070  9.6938410352  18.1432498086  Y
 1.9387682070  13.5713774493  6.0477499362  Y
 1.9387682070  13.5713774493  18.1432498086  Y
 5.8163046211  1.9387682070  6.0477499362  Y
 5.8163046211  1.9387682070  18.1432498086  Y
 5.8163046211  5.8163046211  6.0477499362  Y
 5.8163046211  5.8163046211  18.1432498086  Y
 5.8163046211  9.6938410352  6.0477499362  Y
 5.8163046211  9.6938410352  18.1432498086  Y
 5.8163046211  13.5713774493  6.0477499362  Y
 5.8163046211  13.5713774493  18.1432498086  Y
 9.6938410352  1.9387682070  6.0477499362  Y
 9.6938410352  1.9387682070  18.1432498086  Y
 9.6938410352  5.8163046211  6.0477499362  Y
 9.6938410352  5.8163046211  18.1432498086  Y
 9.6938410352  9.6938410352  6.0477499362  Y
 9.6938410352  9.6938410352  18.1432498086  Y
 9.6938410352  13.5713774493  6.0477499362  Y
 9.6938410352  13.5713774493  18.1432498086  Y
 13.5713774493  1.9387682070  6.0477499362  Y
 13.5713774493  1.9387682070  18.1432498086  Y
 13.5713774493  5.8163046211  6.0477499362  Y
 13.5713774493  5.8163046211  18.1432498086  Y
 13.5713774493  9.6938410352  6.0477499362  Y
 13.5713774493  9.6938410352  18.1432498086  Y
 13.5713774493  13.5713774493  6.0477499362  Y
 13.5713774493  13.5713774493  18.1432498086  Y

