For VASP. System= small                 
   1.00000000000000     
    12.7752455680000008    0.0000000000000000    0.0000000000000000
    -6.3876227840000004   11.0637119626999993    0.0000000000000000
     0.0000000000000000    0.0000000000000000    5.3241289297999996
   F    Ni   Cs
    24     8     8
Direct
  0.5700785509981117  0.6401637579935269  0.2500000000093934
  0.0700785509981117  0.6401637579935269  0.2500000000093934
  0.5700785510003712  0.1401637579980459  0.2500000000093934
  0.0700785510003712  0.1401637579980459  0.2500000000093934
  0.8598362420003482  0.9299214489934329  0.2500000000093934
  0.3598362420003482  0.9299214489934329  0.2500000000093934
  0.8598362420026078  0.4299214489979590  0.2500000000093934
  0.3598362420026149  0.4299214489979590  0.2500000000093934
  0.5700834869935605  0.9299165129918308  0.2500000000093934
  0.0700834869935605  0.9299165129918308  0.2500000000093934
  0.5700834869958200  0.4299165129963498  0.2500000000093934
  0.0700834869958200  0.4299165129963498  0.2500000000093934
  0.9299214489951027  0.8598362419929160  0.7500000000093934
  0.4299214489951027  0.8598362419929160  0.7500000000093934
  0.9299214489973622  0.3598362419974350  0.7500000000093934
  0.4299214489973622  0.3598362419974350  0.7500000000093934
  0.6401637579973851  0.5700785510020410  0.7500000000093934
  0.1401637579973922  0.5700785510020410  0.7500000000093934
  0.6401637579951256  0.0700785509975219  0.7500000000093934
  0.1401637579951256  0.0700785509975219  0.7500000000093934
  0.9299165129996609  0.5700834869946121  0.7500000000093934
  0.4299165129996609  0.5700834869946121  0.7500000000093934
  0.9299165130019205  0.0700834869991311  0.7500000000093934
  0.4299165130019205  0.0700834869991311  0.7500000000093934
  0.0000000000000000  0.0000000000000000  0.0000000000000000
  0.5000000000000000  0.0000000000000000  0.0000000000000000
  0.9999999999977405  0.4999999999954809  0.0000000000000000
  0.4999999999977405  0.4999999999954809  0.0000000000000000
  0.0000000000000000  0.0000000000000000  0.5000000000000000
  0.5000000000000000  0.0000000000000000  0.5000000000000000
  0.9999999999977405  0.4999999999954809  0.5000000000000000
  0.4999999999977405  0.4999999999954809  0.5000000000000000
  0.6666671319982029  0.8333328679997578  0.7500000000093934
  0.1666671319982029  0.8333328679997578  0.7500000000093934
  0.6666671319959434  0.3333328679952388  0.7500000000093934
  0.1666671319959434  0.3333328679952388  0.7500000000093934
  0.8333328679995375  0.6666671319957231  0.2500000000093934
  0.3333328679995375  0.6666671319957231  0.2500000000093934
  0.8333328680017971  0.1666671320002422  0.2500000000093934
  0.3333328680017971  0.1666671320002422  0.2500000000093934
 
  0.00000000E+00  0.00000000E+00  0.00000000E+00
  0.00000000E+00  0.00000000E+00  0.00000000E+00
  0.00000000E+00  0.00000000E+00  0.00000000E+00
  0.00000000E+00  0.00000000E+00  0.00000000E+00
  0.00000000E+00  0.00000000E+00  0.00000000E+00
  0.00000000E+00  0.00000000E+00  0.00000000E+00
  0.00000000E+00  0.00000000E+00  0.00000000E+00
  0.00000000E+00  0.00000000E+00  0.00000000E+00
  0.00000000E+00  0.00000000E+00  0.00000000E+00
  0.00000000E+00  0.00000000E+00  0.00000000E+00
  0.00000000E+00  0.00000000E+00  0.00000000E+00
  0.00000000E+00  0.00000000E+00  0.00000000E+00
  0.00000000E+00  0.00000000E+00  0.00000000E+00
  0.00000000E+00  0.00000000E+00  0.00000000E+00
  0.00000000E+00  0.00000000E+00  0.00000000E+00
  0.00000000E+00  0.00000000E+00  0.00000000E+00
  0.00000000E+00  0.00000000E+00  0.00000000E+00
  0.00000000E+00  0.00000000E+00  0.00000000E+00
  0.00000000E+00  0.00000000E+00  0.00000000E+00
  0.00000000E+00  0.00000000E+00  0.00000000E+00
  0.00000000E+00  0.00000000E+00  0.00000000E+00
  0.00000000E+00  0.00000000E+00  0.00000000E+00
  0.00000000E+00  0.00000000E+00  0.00000000E+00
  0.00000000E+00  0.00000000E+00  0.00000000E+00
  0.00000000E+00  0.00000000E+00  0.00000000E+00
  0.00000000E+00  0.00000000E+00  0.00000000E+00
  0.00000000E+00  0.00000000E+00  0.00000000E+00
  0.00000000E+00  0.00000000E+00  0.00000000E+00
  0.00000000E+00  0.00000000E+00  0.00000000E+00
  0.00000000E+00  0.00000000E+00  0.00000000E+00
  0.00000000E+00  0.00000000E+00  0.00000000E+00
  0.00000000E+00  0.00000000E+00  0.00000000E+00
  0.00000000E+00  0.00000000E+00  0.00000000E+00
  0.00000000E+00  0.00000000E+00  0.00000000E+00
  0.00000000E+00  0.00000000E+00  0.00000000E+00
  0.00000000E+00  0.00000000E+00  0.00000000E+00
  0.00000000E+00  0.00000000E+00  0.00000000E+00
  0.00000000E+00  0.00000000E+00  0.00000000E+00
  0.00000000E+00  0.00000000E+00  0.00000000E+00
  0.00000000E+00  0.00000000E+00  0.00000000E+00
