Re/117 - (A3) - HCP [A2] A3 (117)  (htqc
   1.01639600000000     
     1.3624223800385575   -2.3597847835956984   -0.0000000000000000
     1.3624223800385575    2.3597847835956984    0.0000000000000000
     0.0000000000000000    0.0000000000000000    4.3997035506836006
   Re
     2
Direct
  0.0000000000000000 -0.0000000000000000 -0.0000000000000000
  0.6666666666666714  0.3333333333333428  0.5000000000000000
 
  0.00000000E+00  0.00000000E+00  0.00000000E+00
  0.00000000E+00  0.00000000E+00  0.00000000E+00

