Re/117 - (A3) - HCP [A2] A3 (117) (htqc
1.0
  1.3847606574  -2.3984758149  -0.0000000000
  1.3847606574  2.3984758149  0.0000000000
  0.0000000000  0.0000000000  4.4718410901
Re 
2 
Direct
 0.0000000000  -0.0000000000  -0.0000000000  Re
 0.6666666667  0.3333333333  0.5000000000  Re

