Ce1Co1In5   [TET,TET,tP7] (STD_PRIM doi:
1.0
        9.2529354095         0.0000000000         0.0000000000
        0.0000000000         9.2529354095         0.0000000000
        0.0000000000         0.0000000000        15.2823371887
   Ce   Co   In
    8    8   40
Direct
     0.000000000         0.000000000         0.000000000
    -0.000000000        -0.000000000         0.499999969
     0.000000000         0.499999948         0.000000000
     0.000000000         0.499999948         0.499999969
     0.499999948         0.000000000         0.000000000
     0.499999948        -0.000000000         0.499999969
     0.499999948         0.499999948         0.000000000
     0.499999948         0.499999948         0.499999969
    -0.000000000        -0.000000000         0.249999984
     0.000000000         0.000000000         0.749999938
     0.000000000         0.499999948         0.249999984
     0.000000000         0.499999948         0.749999938
     0.499999948        -0.000000000         0.249999984
     0.499999948         0.000000000         0.749999938
     0.499999948         0.499999948         0.249999984
     0.499999948         0.499999948         0.749999938
     0.249999974         0.249999974         0.000000000
     0.249999974         0.249999974         0.499999969
     0.249999974         0.749999948         0.000000000
     0.249999974         0.749999948         0.499999969
     0.749999948         0.249999974         0.000000000
     0.749999948         0.249999974         0.499999969
     0.749999948         0.749999948         0.000000000
     0.749999948         0.749999948         0.499999969
     0.000000000         0.249999974         0.155938738
     0.000000000         0.249999974         0.655938660
    -0.000000000         0.749999948         0.155938738
     0.000000000         0.749999948         0.655938660
     0.499999948         0.249999974         0.155938738
     0.499999948         0.249999974         0.655938660
     0.499999948         0.749999948         0.155938738
     0.499999948         0.749999948         0.655938660
     0.249999974         0.000000000         0.155938738
     0.249999974         0.000000000         0.655938660
     0.249999974         0.499999948         0.155938738
     0.249999974         0.499999948         0.655938660
     0.749999948         0.000000000         0.155938738
     0.749999948         0.000000000         0.655938660
     0.749999948         0.499999948         0.155938738
     0.749999948         0.499999948         0.655938660
     0.000000000         0.249999974         0.344061215
    -0.000000000         0.249999974         0.844061215
     0.000000000         0.749999948         0.344061215
    -0.000000000         0.749999948         0.844061215
     0.499999948         0.249999974         0.344061215
     0.499999948         0.249999974         0.844061215
     0.499999948         0.749999948         0.344061215
     0.499999948         0.749999948         0.844061215
     0.249999974         0.000000000         0.344061215
     0.249999974        -0.000000000         0.844061215
     0.249999974         0.499999948         0.344061215
     0.249999974         0.499999948         0.844061215
     0.749999948         0.000000000         0.344061215
     0.749999948        -0.000000000         0.844061215
     0.749999948         0.499999948         0.344061215
     0.749999948         0.499999948         0.844061215
