Iron Fe bcc
1.0
  1.41450444   1.41450444   1.41450444
  1.41450444  -1.41450444  -1.41450444
 -1.41450444   1.41450444  -1.41450444
Fe
1 
Direct
  0.0  0.0  0.0  Fe
