NewRef: 18, @ ['Mn', array([1.37502469, 
   1.00000000000000     
     8.2501481662000007    0.0000000000000000    0.0000000000000000
     0.0000000000000000    8.2501481662000007    0.0000000000000000
     0.0000000000000000    0.0000000000000000    6.9532742609999998
   Al   Mn
    18    18
Direct
  0.0000000000000000  0.0000000000000000  0.0000000000000000
  0.0000000000000000  0.0000000000000000  0.5000000000000000
  0.0000000000000000  0.3333333333292927  0.0000000000000000
  0.0000000000000000  0.3333333333292927  0.5000000000000000
  0.0000000000000000  0.6666666666585854  0.0000000000000000
  0.0000000000000000  0.6666666666585854  0.5000000000000000
  0.3333333333292927  0.0000000000000000  0.0000000000000000
  0.3333333333292927  0.0000000000000000  0.5000000000000000
  0.3333333333292927  0.3333333333292927  0.0000000000000000
  0.3333333333292927  0.3333333333292927  0.5000000000000000
  0.3333333333292927  0.6666666666585854  0.0000000000000000
  0.3333333333292927  0.6666666666585854  0.5000000000000000
  0.6666666666585854  0.0000000000000000  0.0000000000000000
  0.6666666666585854  0.0000000000000000  0.5000000000000000
  0.6666666666585854  0.3333333333292927  0.0000000000000000
  0.6666666666585854  0.3333333333292927  0.5000000000000000
  0.6666666666585854  0.6666666666585854  0.0000000000000000
  0.6666666666585854  0.6666666666585854  0.5000000000000000
  0.1666666666707073  0.1666666666707073  0.2500000000071907
  0.1666666666707073  0.1666666666707073  0.7500000000071907
  0.1666666666707073  0.5000000000000000  0.2500000000071907
  0.1666666666707073  0.5000000000000000  0.7500000000071907
  0.1666666666707073  0.8333333333292927  0.2500000000071907
  0.1666666666707073  0.8333333333292927  0.7500000000071907
  0.5000000000000000  0.1666666666707073  0.2500000000071907
  0.5000000000000000  0.1666666666707073  0.7500000000071907
  0.5000000000000000  0.5000000000000000  0.2500000000071907
  0.5000000000000000  0.5000000000000000  0.7500000000071907
  0.5000000000000000  0.8333333333292927  0.2500000000071907
  0.5000000000000000  0.8333333333292927  0.7500000000071907
  0.8333333333292927  0.1666666666707073  0.2500000000071907
  0.8333333333292927  0.1666666666707073  0.7500000000071907
  0.8333333333292927  0.5000000000000000  0.2500000000071907
  0.8333333333292927  0.5000000000000000  0.7500000000071907
  0.8333333333292927  0.8333333333292927  0.2500000000071907
  0.8333333333292927  0.8333333333292927  0.7500000000071907
 
  0.00000000E+00  0.00000000E+00  0.00000000E+00
  0.00000000E+00  0.00000000E+00  0.00000000E+00
  0.00000000E+00  0.00000000E+00  0.00000000E+00
  0.00000000E+00  0.00000000E+00  0.00000000E+00
  0.00000000E+00  0.00000000E+00  0.00000000E+00
  0.00000000E+00  0.00000000E+00  0.00000000E+00
  0.00000000E+00  0.00000000E+00  0.00000000E+00
  0.00000000E+00  0.00000000E+00  0.00000000E+00
  0.00000000E+00  0.00000000E+00  0.00000000E+00
  0.00000000E+00  0.00000000E+00  0.00000000E+00
  0.00000000E+00  0.00000000E+00  0.00000000E+00
  0.00000000E+00  0.00000000E+00  0.00000000E+00
  0.00000000E+00  0.00000000E+00  0.00000000E+00
  0.00000000E+00  0.00000000E+00  0.00000000E+00
  0.00000000E+00  0.00000000E+00  0.00000000E+00
  0.00000000E+00  0.00000000E+00  0.00000000E+00
  0.00000000E+00  0.00000000E+00  0.00000000E+00
  0.00000000E+00  0.00000000E+00  0.00000000E+00
  0.00000000E+00  0.00000000E+00  0.00000000E+00
  0.00000000E+00  0.00000000E+00  0.00000000E+00
  0.00000000E+00  0.00000000E+00  0.00000000E+00
  0.00000000E+00  0.00000000E+00  0.00000000E+00
  0.00000000E+00  0.00000000E+00  0.00000000E+00
  0.00000000E+00  0.00000000E+00  0.00000000E+00
  0.00000000E+00  0.00000000E+00  0.00000000E+00
  0.00000000E+00  0.00000000E+00  0.00000000E+00
  0.00000000E+00  0.00000000E+00  0.00000000E+00
  0.00000000E+00  0.00000000E+00  0.00000000E+00
  0.00000000E+00  0.00000000E+00  0.00000000E+00
  0.00000000E+00  0.00000000E+00  0.00000000E+00
  0.00000000E+00  0.00000000E+00  0.00000000E+00
  0.00000000E+00  0.00000000E+00  0.00000000E+00
  0.00000000E+00  0.00000000E+00  0.00000000E+00
  0.00000000E+00  0.00000000E+00  0.00000000E+00
  0.00000000E+00  0.00000000E+00  0.00000000E+00
  0.00000000E+00  0.00000000E+00  0.00000000E+00
