#164 (P -3 m 1)
1.0
  8.3094800000  0.0000000000  0.0000000000
  -4.1547400000  7.1962174170  0.0000000000
  0.0000000000  0.0000000000  5.2414704134
Fe Sn 
20 4 
Carthesian
 -0.0000207737  2.3987511327  3.4968469863  Fe
 2.0773492263  1.1993575758  1.7446234271  Fe
 -0.0000207737  2.3987511327  1.0877623549  Fe
 2.0773492263  1.1993575758  4.1537080585  Fe
 0.0000000000  0.0000000000  2.6207352067  Fe
 -2.0773907737  5.9968598412  3.4968469863  Fe
 -0.0000207737  4.7974662843  1.7446234271  Fe
 -2.0773907737  5.9968598412  1.0877623549  Fe
 -0.0000207737  4.7974662843  4.1537080585  Fe
 -2.0773700000  3.5981087085  2.6207352067  Fe
 4.1547192263  2.3987511327  3.4968469863  Fe
 6.2320892263  1.1993575758  1.7446234271  Fe
 4.1547192263  2.3987511327  1.0877623549  Fe
 6.2320892263  1.1993575758  4.1537080585  Fe
 4.1547400000  0.0000000000  2.6207352067  Fe
 2.0773492263  5.9968598412  3.4968469863  Fe
 4.1547192263  4.7974662843  1.7446234271  Fe
 2.0773492263  5.9968598412  1.0877623549  Fe
 4.1547192263  4.7974662843  4.1537080585  Fe
 2.0773700000  3.5981087085  2.6207352067  Fe
 0.0000000000  0.0000000000  0.0000000000  Sn
 -2.0773700000  3.5981087085  0.0000000000  Sn
 4.1547400000  0.0000000000  0.0000000000  Sn
 2.0773700000  3.5981087085  0.0000000000  Sn

