NewRef: 18, @ ['Mn', array([1.37502469, 1.37502469, 1.73831857]), 3.0]
1.0
  8.2501481662  0.0000000000  0.0000000000
  0.0000000000  8.2501481662  0.0000000000
  0.0000000000  0.0000000000  6.9532742610
Al Mn 
18 18 
Carthesian
  0.0000000000  0.0000000000  0.0000000000  Al
  0.0000000000  0.0000000000  3.4766371305  Al
  0.0000000000  2.7500493887  0.0000000000  Al
  0.0000000000  2.7500493887  3.4766371305  Al
  0.0000000000  5.5000987774  0.0000000000  Al
  0.0000000000  5.5000987774  3.4766371305  Al
  2.7500493887  0.0000000000  0.0000000000  Al
  2.7500493887  0.0000000000  3.4766371305  Al
  2.7500493887  2.7500493887  0.0000000000  Al
  2.7500493887  2.7500493887  3.4766371305  Al
  2.7500493887  5.5000987774  0.0000000000  Al
  2.7500493887  5.5000987774  3.4766371305  Al
  5.5000987774  0.0000000000  0.0000000000  Al
  5.5000987774  0.0000000000  3.4766371305  Al
  5.5000987774  2.7500493887  0.0000000000  Al
  5.5000987774  2.7500493887  3.4766371305  Al
  5.5000987774  5.5000987774  0.0000000000  Al
  5.5000987774  5.5000987774  3.4766371305  Al
  1.3750246944  1.3750246944  1.7383185653  Mn
  1.3750246944  1.3750246944  5.2149556958  Mn
  1.3750246944  4.1250740831  1.7383185653  Mn
  1.3750246944  4.1250740831  5.2149556958  Mn
  1.3750246944  6.8751234718  1.7383185653  Mn
  1.3750246944  6.8751234718  5.2149556958  Mn
  4.1250740831  1.3750246944  1.7383185653  Mn
  4.1250740831  1.3750246944  5.2149556958  Mn
  4.1250740831  4.1250740831  1.7383185653  Mn
  4.1250740831  4.1250740831  5.2149556958  Mn
  4.1250740831  6.8751234718  1.7383185653  Mn
  4.1250740831  6.8751234718  5.2149556958  Mn
  6.8751234718  1.3750246944  1.7383185653  Mn
  6.8751234718  1.3750246944  5.2149556958  Mn
  6.8751234718  4.1250740831  1.7383185653  Mn
  6.8751234718  4.1250740831  5.2149556958  Mn
  6.8751234718  6.8751234718  1.7383185653  Mn
  6.8751234718  6.8751234718  5.2149556958  Mn

