#164 (P -3 m 1)
  4.154740
  1.000000  0.000000  0.000000
 -0.500000  0.866025  0.000000
  0.000000  0.000000  1.261564
Fe Sn
5 1
Direct
0.33333000 0.66667000 0.66715000
0.66666000 0.33333000 0.33285000
0.33333000 0.66667000 0.20753000
0.66666000 0.33333000 0.79247000
0.00000000 0.00000000 0.50000000
0.00000000 0.00000000 0.00000000
