For VASP. System= small
1.0
  38.3257367040  0.0000000000  0.0000000000
  -19.1628683520  33.1911358880  0.0000000000
  0.0000000000  0.0000000000  10.6482578596
F Ni Cs 
432 144 144 
Carthesian
 3.1937688760  7.0825874274  1.3310322325  F
 -3.1938539080  7.0825874274  1.3310322325  F
 6.3875802680  1.5507314461  1.3310322325  F
 -0.0000425160  1.5507314461  1.3310322325  F
 5.0446317049  10.2883830596  1.3310322325  F
 -1.3429910791  10.2883830596  1.3310322325  F
 8.2384430969  4.7565270783  1.3310322325  F
 1.8508203129  4.7565270783  1.3310322325  F
 1.3430006350  10.2883284491  1.3310322325  F
 -5.0446221490  10.2883284491  1.3310322325  F
 4.5368120270  4.7564724678  1.3310322325  F
 -1.8508107570  4.7564724678  1.3310322325  F
 6.3876653000  9.5129805165  3.9930966974  F
 0.0000425160  9.5129805165  3.9930966974  F
 9.5814766920  3.9811245352  3.9930966974  F
 3.1938539080  3.9811245352  3.9930966974  F
 4.5368024711  6.3071848844  3.9930966974  F
 -1.8508203129  6.3071848844  3.9930966974  F
 7.7306138631  0.7753289030  3.9930966974  F
 1.3429910791  0.7753289030  3.9930966974  F
 8.2384335410  6.3072394948  3.9930966974  F
 1.8508107570  6.3072394948  3.9930966974  F
 11.4322449330  0.7753835135  3.9930966974  F
 5.0446221490  0.7753835135  3.9930966974  F
 -3.1938539080  18.1462993901  1.3310322325  F
 -9.5814766920  18.1462993901  1.3310322325  F
 -0.0000425160  12.6144434088  1.3310322325  F
 -6.3876653000  12.6144434088  1.3310322325  F
 -1.3429910791  21.3520950223  1.3310322325  F
 -7.7306138631  21.3520950223  1.3310322325  F
 1.8508203129  15.8202390410  1.3310322325  F
 -4.5368024711  15.8202390410  1.3310322325  F
 -5.0446221490  21.3520404118  1.3310322325  F
 -11.4322449330  21.3520404118  1.3310322325  F
 -1.8508107570  15.8201844305  1.3310322325  F
 -8.2384335410  15.8201844305  1.3310322325  F
 0.0000425160  20.5766924792  3.9930966974  F
 -6.3875802680  20.5766924792  3.9930966974  F
 3.1938539080  15.0448364979  3.9930966974  F
 -3.1937688760  15.0448364979  3.9930966974  F
 -1.8508203129  17.3708968470  3.9930966974  F
 -8.2384430969  17.3708968470  3.9930966974  F
 1.3429910791  11.8390408657  3.9930966974  F
 -5.0446317049  11.8390408657  3.9930966974  F
 1.8508107570  17.3709514575  3.9930966974  F
 -4.5368120270  17.3709514575  3.9930966974  F
 5.0446221490  11.8390954762  3.9930966974  F
 -1.3430006350  11.8390954762  3.9930966974  F
 15.9690144440  7.0825874274  1.3310322325  F
 9.5813916600  7.0825874274  1.3310322325  F
 19.1628258360  1.5507314461  1.3310322325  F
 12.7752030520  1.5507314461  1.3310322325  F
 17.8198772729  10.2883830596  1.3310322325  F
 11.4322544889  10.2883830596  1.3310322325  F
 21.0136886649  4.7565270783  1.3310322325  F
 14.6260658809  4.7565270783  1.3310322325  F
 14.1182462030  10.2883284491  1.3310322325  F
 7.7306234190  10.2883284491  1.3310322325  F
 17.3120575950  4.7564724678  1.3310322325  F
 10.9244348110  4.7564724678  1.3310322325  F
 19.1629108680  9.5129805165  3.9930966974  F
 12.7752880840  9.5129805165  3.9930966974  F
 22.3567222600  3.9811245352  3.9930966974  F
 15.9690994760  3.9811245352  3.9930966974  F
 17.3120480391  6.3071848844  3.9930966974  F
 10.9244252551  6.3071848844  3.9930966974  F
 20.5058594311  0.7753289030  3.9930966974  F
 14.1182366471  0.7753289030  3.9930966974  F
 21.0136791090  6.3072394948  3.9930966974  F
 14.6260563250  6.3072394948  3.9930966974  F
 24.2074905010  0.7753835135  3.9930966974  F
 17.8198677170  0.7753835135  3.9930966974  F
 9.5813916600  18.1462993901  1.3310322325  F
 3.1937688760  18.1462993901  1.3310322325  F
 12.7752030520  12.6144434088  1.3310322325  F
 6.3875802680  12.6144434088  1.3310322325  F
 11.4322544889  21.3520950223  1.3310322325  F
 5.0446317049  21.3520950223  1.3310322325  F
 14.6260658809  15.8202390410  1.3310322325  F
 8.2384430969  15.8202390410  1.3310322325  F
 7.7306234190  21.3520404118  1.3310322325  F
 1.3430006350  21.3520404118  1.3310322325  F
 10.9244348110  15.8201844305  1.3310322325  F
 4.5368120270  15.8201844305  1.3310322325  F
 12.7752880840  20.5766924792  3.9930966974  F
 6.3876653000  20.5766924792  3.9930966974  F
 15.9690994760  15.0448364979  3.9930966974  F
 9.5814766920  15.0448364979  3.9930966974  F
 10.9244252551  17.3708968470  3.9930966974  F
 4.5368024711  17.3708968470  3.9930966974  F
 14.1182366471  11.8390408657  3.9930966974  F
 7.7306138631  11.8390408657  3.9930966974  F
 14.6260563250  17.3709514575  3.9930966974  F
 8.2384335410  17.3709514575  3.9930966974  F
 17.8198677170  11.8390954762  3.9930966974  F
 11.4322449330  11.8390954762  3.9930966974  F
 0.0000000000  0.0000000000  0.0000000000  Ni
 6.3876227840  0.0000000000  0.0000000000  Ni
 -3.1938113920  5.5318559813  0.0000000000  Ni
 3.1938113920  5.5318559813  0.0000000000  Ni
 0.0000000000  0.0000000000  2.6620644649  Ni
 6.3876227840  0.0000000000  2.6620644649  Ni
 -3.1938113920  5.5318559813  2.6620644649  Ni
 3.1938113920  5.5318559813  2.6620644649  Ni
 -6.3876227840  11.0637119627  0.0000000000  Ni
 0.0000000000  11.0637119627  0.0000000000  Ni
 -9.5814341760  16.5955679440  0.0000000000  Ni
 -3.1938113920  16.5955679440  0.0000000000  Ni
 -6.3876227840  11.0637119627  2.6620644649  Ni
 0.0000000000  11.0637119627  2.6620644649  Ni
 -9.5814341760  16.5955679440  2.6620644649  Ni
 -3.1938113920  16.5955679440  2.6620644649  Ni
 12.7752455680  0.0000000000  0.0000000000  Ni
 19.1628683520  0.0000000000  0.0000000000  Ni
 9.5814341760  5.5318559813  0.0000000000  Ni
 15.9690569600  5.5318559813  0.0000000000  Ni
 12.7752455680  0.0000000000  2.6620644649  Ni
 19.1628683520  0.0000000000  2.6620644649  Ni
 9.5814341760  5.5318559813  2.6620644649  Ni
 15.9690569600  5.5318559813  2.6620644649  Ni
 6.3876227840  11.0637119627  0.0000000000  Ni
 12.7752455680  11.0637119627  0.0000000000  Ni
 3.1938113920  16.5955679440  0.0000000000  Ni
 9.5814341760  16.5955679440  0.0000000000  Ni
 6.3876227840  11.0637119627  2.6620644649  Ni
 12.7752455680  11.0637119627  2.6620644649  Ni
 3.1938113920  16.5955679440  2.6620644649  Ni
 9.5814341760  16.5955679440  2.6620644649  Ni
 3.1938203091  9.2197548206  3.9930966974  Cs
 -3.1938024749  9.2197548206  3.9930966974  Cs
 6.3876317011  3.6878988392  3.9930966974  Cs
 0.0000089171  3.6878988392  3.9930966974  Cs
 6.3876138669  7.3758131234  1.3310322325  Cs
 -0.0000089171  7.3758131234  1.3310322325  Cs
 9.5814252589  1.8439571421  1.3310322325  Cs
 3.1938024749  1.8439571421  1.3310322325  Cs
 -3.1938024749  20.2834667832  3.9930966974  Cs
 -9.5814252589  20.2834667832  3.9930966974  Cs
 0.0000089171  14.7516108019  3.9930966974  Cs
 -6.3876138669  14.7516108019  3.9930966974  Cs
 -0.0000089171  18.4395250861  1.3310322325  Cs
 -6.3876317011  18.4395250861  1.3310322325  Cs
 3.1938024749  12.9076691047  1.3310322325  Cs
 -3.1938203091  12.9076691047  1.3310322325  Cs
 15.9690658771  9.2197548206  3.9930966974  Cs
 9.5814430931  9.2197548206  3.9930966974  Cs
 19.1628772691  3.6878988392  3.9930966974  Cs
 12.7752544851  3.6878988392  3.9930966974  Cs
 19.1628594349  7.3758131234  1.3310322325  Cs
 12.7752366509  7.3758131234  1.3310322325  Cs
 22.3566708269  1.8439571421  1.3310322325  Cs
 15.9690480429  1.8439571421  1.3310322325  Cs
 9.5814430931  20.2834667832  3.9930966974  Cs
 3.1938203091  20.2834667832  3.9930966974  Cs
 12.7752544851  14.7516108019  3.9930966974  Cs
 6.3876317011  14.7516108019  3.9930966974  Cs
 12.7752366509  18.4395250861  1.3310322325  Cs
 6.3876138669  18.4395250861  1.3310322325  Cs
 15.9690480429  12.9076691047  1.3310322325  Cs
 9.5814252589  12.9076691047  1.3310322325  Cs

